(set-logic QF_SLIA)
(declare-fun var0 () String)
(assert (not (str.in_re var0 (re.++ ((_ re.loop 1 734) (re.++ (re.union (str.to_re "y") (re.union (str.to_re "d=") (re.union (str.to_re "u") (str.to_re "D.")))) (re.++ (re.union (str.to_re ":9") (re.union (str.to_re "Y`9") (re.union (str.to_re "o") (str.to_re "H")))) (re.++ (re.union (str.to_re "sb)") (re.union (str.to_re "^R") (re.union (str.to_re "w") (str.to_re "?")))) (re.union (str.to_re "R`b") (re.union (str.to_re "l") (re.union (str.to_re "1=i") (str.to_re "<")))))))) (re.++ ((_ re.loop 5 615) (re.++ (re.union (str.to_re "x") (re.union (str.to_re "Lrk") (re.union (str.to_re "7zu") (str.to_re "z")))) (re.++ (re.union (str.to_re "w") (re.union (str.to_re "I(") (re.union (str.to_re "kkt") (str.to_re "'H")))) (re.++ (re.union (str.to_re "`k") (re.union (str.to_re ".{z") (re.union (str.to_re "f") (str.to_re "H1")))) (re.union (str.to_re ";bO") (re.union (str.to_re "k4C") (re.union (str.to_re "<7G") (str.to_re "{6")))))))) (re.++ ((_ re.loop 17 217) (re.++ (re.union (str.to_re "ui") (re.union (str.to_re "_69") (re.union (str.to_re "#") (str.to_re "S")))) (re.++ (re.union (str.to_re "wcx") (re.union (str.to_re "]") (re.union (str.to_re "M") (str.to_re "@")))) (re.++ (re.union (str.to_re "37\u0022") (re.union (str.to_re "G") (re.union (str.to_re "-\u0022z") (str.to_re "SH")))) (re.union (str.to_re "it") (re.union (str.to_re "6") (re.union (str.to_re "}") (str.to_re "7")))))))) ((_ re.loop 13 649) (re.++ (re.union (str.to_re "V") (re.union (str.to_re "qGi") (re.union (str.to_re "FX") (str.to_re "e<E")))) (re.++ (re.union (str.to_re ",n") (re.union (str.to_re "[W~") (re.union (str.to_re "I") (str.to_re "G")))) (re.++ (re.union (str.to_re "mV") (re.union (str.to_re "c") (re.union (str.to_re "Sg") (str.to_re "D1.")))) (re.union (str.to_re "@X,") (re.union (str.to_re ";L") (re.union (str.to_re "=r") (str.to_re "NQi"))))))))))))))
(assert (not (str.in_re var0 (re.++ ((_ re.loop 5 107) (re.++ (re.union (str.to_re "b#G") (re.union (str.to_re "&N") (re.union (str.to_re "J*") (str.to_re "W")))) (re.++ (re.union (str.to_re "*") (re.union (str.to_re "8") (re.union (str.to_re "Y;;") (str.to_re "lf")))) (re.++ (re.union (str.to_re "OMe") (re.union (str.to_re "NY") (re.union (str.to_re ":") (str.to_re "Sg")))) (re.union (str.to_re "A{") (re.union (str.to_re "y0#") (re.union (str.to_re "Q") (str.to_re "6D")))))))) (re.++ ((_ re.loop 13 50) (re.++ (re.union (str.to_re "J") (re.union (str.to_re "v{") (re.union (str.to_re "kW") (str.to_re "Kn")))) (re.++ (re.union (str.to_re "!:x") (re.union (str.to_re "+[") (re.union (str.to_re "=E") (str.to_re "v")))) (re.++ (re.union (str.to_re "!") (re.union (str.to_re "x\\") (re.union (str.to_re "t") (str.to_re "HY")))) (re.union (str.to_re "l*") (re.union (str.to_re "u") (re.union (str.to_re ";N9") (str.to_re "6x`")))))))) (re.++ ((_ re.loop 3 109) (re.++ (re.union (str.to_re "bW") (re.union (str.to_re "e*;") (re.union (str.to_re "j1M") (str.to_re "WdW")))) (re.++ (re.union (str.to_re "=;J") (re.union (str.to_re "D") (re.union (str.to_re "aM") (str.to_re "m,")))) (re.++ (re.union (str.to_re "E") (re.union (str.to_re "%yj") (re.union (str.to_re "r%J") (str.to_re ":&q")))) (re.union (str.to_re "KS") (re.union (str.to_re "Lma") (re.union (str.to_re "Fz") (str.to_re "Wg")))))))) ((_ re.loop 9 825) (re.++ (re.union (str.to_re "fyc") (re.union (str.to_re "MF") (re.union (str.to_re ":$") (str.to_re "H")))) (re.++ (re.union (str.to_re "O") (re.union (str.to_re "L'^") (re.union (str.to_re "[8") (str.to_re "'Y")))) (re.++ (re.union (str.to_re "dZ") (re.union (str.to_re "c") (re.union (str.to_re ",|") (str.to_re "v")))) (re.union (str.to_re "HL") (re.union (str.to_re "Sm") (re.union (str.to_re ")d7") (str.to_re "DaV"))))))))))))))
(assert (not (str.in_re var0 (re.++ (re.* re.allchar) (re.++ (re.union (str.to_re "<") (re.union (str.to_re ">") (re.union (str.to_re "'") (re.union (str.to_re "\u0022") (str.to_re "&"))))) (re.* re.allchar))))))
(assert (<= 50 (str.len var0)))
(check-sat)
(get-model)
